p cnf 54 368
1 2 3 4 5 0
6 7 8 9 0
-1 -2 0
-1 -3 0
-1 -4 0
-1 -5 0
-2 -3 0
-2 -4 0
-2 -5 0
-3 -4 0
-3 -5 0
-4 -5 0
-6 -7 0
-6 -8 0
-6 -9 0
-7 -8 0
-7 -9 0
-8 -9 0
10 11 12 13 14 0
15 16 17 18 19 20 0
-10 -11 0
-10 -12 0
-10 -13 0
-10 -14 0
-11 -12 0
-11 -13 0
-11 -14 0
-12 -13 0
-12 -14 0
-13 -14 0
-15 -16 0
-15 -17 0
-15 -18 0
-15 -19 0
-15 -20 0
-16 -17 0
-16 -18 0
-16 -19 0
-16 -20 0
-17 -18 0
-17 -19 0
-17 -20 0
-18 -19 0
-18 -20 0
-19 -20 0
21 22 23 24 25 0
26 27 28 0
-21 -22 0
-21 -23 0
-21 -24 0
-21 -25 0
-22 -23 0
-22 -24 0
-22 -25 0
-23 -24 0
-23 -25 0
-24 -25 0
-26 -27 0
-26 -28 0
-27 -28 0
29 30 31 32 33 0
34 35 0
-29 -30 0
-29 -31 0
-29 -32 0
-29 -33 0
-30 -31 0
-30 -32 0
-30 -33 0
-31 -32 0
-31 -33 0
-32 -33 0
-34 -35 0
36 37 38 39 40 0
41 42 43 44 0
-36 -37 0
-36 -38 0
-36 -39 0
-36 -40 0
-37 -38 0
-37 -39 0
-37 -40 0
-38 -39 0
-38 -40 0
-39 -40 0
-41 -42 0
-41 -43 0
-41 -44 0
-42 -43 0
-42 -44 0
-43 -44 0
45 46 47 48 49 0
50 51 52 53 54 0
-45 -46 0
-45 -47 0
-45 -48 0
-45 -49 0
-46 -47 0
-46 -48 0
-46 -49 0
-47 -48 0
-47 -49 0
-48 -49 0
-50 -51 0
-50 -52 0
-50 -53 0
-50 -54 0
-51 -52 0
-51 -53 0
-51 -54 0
-52 -53 0
-52 -54 0
-53 -54 0
-1 -10 -9 -15 0
-2 -11 -9 -15 0
-3 -12 -9 -15 0
-4 -13 -9 -15 0
-5 -14 -9 -15 0
-1 -21 -7 -26 0
-1 -21 -8 -26 0
-1 -21 -8 -27 0
-1 -21 -9 -26 0
-1 -21 -9 -27 0
-1 -21 -9 -28 0
-2 -22 -7 -26 0
-2 -22 -8 -26 0
-2 -22 -8 -27 0
-2 -22 -9 -26 0
-2 -22 -9 -27 0
-2 -22 -9 -28 0
-3 -23 -7 -26 0
-3 -23 -8 -26 0
-3 -23 -8 -27 0
-3 -23 -9 -26 0
-3 -23 -9 -27 0
-3 -23 -9 -28 0
-4 -24 -7 -26 0
-4 -24 -8 -26 0
-4 -24 -8 -27 0
-4 -24 -9 -26 0
-4 -24 -9 -27 0
-4 -24 -9 -28 0
-5 -25 -7 -26 0
-5 -25 -8 -26 0
-5 -25 -8 -27 0
-5 -25 -9 -26 0
-5 -25 -9 -27 0
-5 -25 -9 -28 0
-1 -29 -9 -34 0
-2 -30 -9 -34 0
-3 -31 -9 -34 0
-4 -32 -9 -34 0
-5 -33 -9 -34 0
-1 -36 -6 -44 0
-2 -37 -6 -44 0
-3 -38 -6 -44 0
-4 -39 -6 -44 0
-5 -40 -6 -44 0
-1 -45 -6 -50 0
-1 -45 -6 -51 0
-1 -45 -6 -52 0
-1 -45 -6 -53 0
-1 -45 -6 -54 0
-1 -45 -7 -51 0
-1 -45 -7 -52 0
-1 -45 -7 -53 0
-1 -45 -7 -54 0
-1 -45 -8 -52 0
-1 -45 -8 -53 0
-1 -45 -8 -54 0
-1 -45 -9 -53 0
-1 -45 -9 -54 0
-2 -46 -6 -50 0
-2 -46 -6 -51 0
-2 -46 -6 -52 0
-2 -46 -6 -53 0
-2 -46 -6 -54 0
-2 -46 -7 -51 0
-2 -46 -7 -52 0
-2 -46 -7 -53 0
-2 -46 -7 -54 0
-2 -46 -8 -52 0
-2 -46 -8 -53 0
-2 -46 -8 -54 0
-2 -46 -9 -53 0
-2 -46 -9 -54 0
-3 -47 -6 -50 0
-3 -47 -6 -51 0
-3 -47 -6 -52 0
-3 -47 -6 -53 0
-3 -47 -6 -54 0
-3 -47 -7 -51 0
-3 -47 -7 -52 0
-3 -47 -7 -53 0
-3 -47 -7 -54 0
-3 -47 -8 -52 0
-3 -47 -8 -53 0
-3 -47 -8 -54 0
-3 -47 -9 -53 0
-3 -47 -9 -54 0
-4 -48 -6 -50 0
-4 -48 -6 -51 0
-4 -48 -6 -52 0
-4 -48 -6 -53 0
-4 -48 -6 -54 0
-4 -48 -7 -51 0
-4 -48 -7 -52 0
-4 -48 -7 -53 0
-4 -48 -7 -54 0
-4 -48 -8 -52 0
-4 -48 -8 -53 0
-4 -48 -8 -54 0
-4 -48 -9 -53 0
-4 -48 -9 -54 0
-5 -49 -6 -50 0
-5 -49 -6 -51 0
-5 -49 -6 -52 0
-5 -49 -6 -53 0
-5 -49 -6 -54 0
-5 -49 -7 -51 0
-5 -49 -7 -52 0
-5 -49 -7 -53 0
-5 -49 -7 -54 0
-5 -49 -8 -52 0
-5 -49 -8 -53 0
-5 -49 -8 -54 0
-5 -49 -9 -53 0
-5 -49 -9 -54 0
-10 -21 -15 -26 0
-10 -21 -15 -27 0
-10 -21 -15 -28 0
-10 -21 -16 -27 0
-10 -21 -16 -28 0
-10 -21 -17 -28 0
-11 -22 -15 -26 0
-11 -22 -15 -27 0
-11 -22 -15 -28 0
-11 -22 -16 -27 0
-11 -22 -16 -28 0
-11 -22 -17 -28 0
-12 -23 -15 -26 0
-12 -23 -15 -27 0
-12 -23 -15 -28 0
-12 -23 -16 -27 0
-12 -23 -16 -28 0
-12 -23 -17 -28 0
-13 -24 -15 -26 0
-13 -24 -15 -27 0
-13 -24 -15 -28 0
-13 -24 -16 -27 0
-13 -24 -16 -28 0
-13 -24 -17 -28 0
-14 -25 -15 -26 0
-14 -25 -15 -27 0
-14 -25 -15 -28 0
-14 -25 -16 -27 0
-14 -25 -16 -28 0
-14 -25 -17 -28 0
-10 -29 -15 -34 0
-10 -29 -16 -34 0
-10 -29 -16 -35 0
-10 -29 -17 -34 0
-10 -29 -17 -35 0
-10 -29 -18 -34 0
-10 -29 -18 -35 0
-10 -29 -19 -35 0
-11 -30 -15 -34 0
-11 -30 -16 -34 0
-11 -30 -16 -35 0
-11 -30 -17 -34 0
-11 -30 -17 -35 0
-11 -30 -18 -34 0
-11 -30 -18 -35 0
-11 -30 -19 -35 0
-12 -31 -15 -34 0
-12 -31 -16 -34 0
-12 -31 -16 -35 0
-12 -31 -17 -34 0
-12 -31 -17 -35 0
-12 -31 -18 -34 0
-12 -31 -18 -35 0
-12 -31 -19 -35 0
-13 -32 -15 -34 0
-13 -32 -16 -34 0
-13 -32 -16 -35 0
-13 -32 -17 -34 0
-13 -32 -17 -35 0
-13 -32 -18 -34 0
-13 -32 -18 -35 0
-13 -32 -19 -35 0
-14 -33 -15 -34 0
-14 -33 -16 -34 0
-14 -33 -16 -35 0
-14 -33 -17 -34 0
-14 -33 -17 -35 0
-14 -33 -18 -34 0
-14 -33 -18 -35 0
-14 -33 -19 -35 0
-21 -29 -26 -34 0
-21 -29 -27 -34 0
-21 -29 -27 -35 0
-21 -29 -28 -34 0
-21 -29 -28 -35 0
-22 -30 -26 -34 0
-22 -30 -27 -34 0
-22 -30 -27 -35 0
-22 -30 -28 -34 0
-22 -30 -28 -35 0
-23 -31 -26 -34 0
-23 -31 -27 -34 0
-23 -31 -27 -35 0
-23 -31 -28 -34 0
-23 -31 -28 -35 0
-24 -32 -26 -34 0
-24 -32 -27 -34 0
-24 -32 -27 -35 0
-24 -32 -28 -34 0
-24 -32 -28 -35 0
-25 -33 -26 -34 0
-25 -33 -27 -34 0
-25 -33 -27 -35 0
-25 -33 -28 -34 0
-25 -33 -28 -35 0
-21 -45 -26 -53 0
-21 -45 -26 -54 0
-21 -45 -27 -54 0
-22 -46 -26 -53 0
-22 -46 -26 -54 0
-22 -46 -27 -54 0
-23 -47 -26 -53 0
-23 -47 -26 -54 0
-23 -47 -27 -54 0
-24 -48 -26 -53 0
-24 -48 -26 -54 0
-24 -48 -27 -54 0
-25 -49 -26 -53 0
-25 -49 -26 -54 0
-25 -49 -27 -54 0
-36 -45 -42 -50 0
-36 -45 -43 -50 0
-36 -45 -43 -51 0
-36 -45 -44 -50 0
-36 -45 -44 -51 0
-36 -45 -44 -52 0
-37 -46 -42 -50 0
-37 -46 -43 -50 0
-37 -46 -43 -51 0
-37 -46 -44 -50 0
-37 -46 -44 -51 0
-37 -46 -44 -52 0
-38 -47 -42 -50 0
-38 -47 -43 -50 0
-38 -47 -43 -51 0
-38 -47 -44 -50 0
-38 -47 -44 -51 0
-38 -47 -44 -52 0
-39 -48 -42 -50 0
-39 -48 -43 -50 0
-39 -48 -43 -51 0
-39 -48 -44 -50 0
-39 -48 -44 -51 0
-39 -48 -44 -52 0
-40 -49 -42 -50 0
-40 -49 -43 -50 0
-40 -49 -43 -51 0
-40 -49 -44 -50 0
-40 -49 -44 -51 0
-40 -49 -44 -52 0
