p cnf 67 393
1 2 3 0
-1 -2 0
-1 -3 0
-2 -3 0
4 5 0
-4 -5 0
6 7 8 0
-6 -7 0
-6 -8 0
-7 -8 0
9 10 11 12 0
-9 -10 0
-9 -11 0
-9 -12 0
-10 -11 0
-10 -12 0
-11 -12 0
13 14 15 0
-13 -14 0
-13 -15 0
-14 -15 0
16 17 18 0
-16 -17 0
-16 -18 0
-17 -18 0
19 20 21 0
-19 -20 0
-19 -21 0
-20 -21 0
22 23 24 25 26 27 28 29 30 31 0
-22 -23 0
-22 -24 0
-22 -25 0
-22 -26 0
-22 -27 0
-22 -28 0
-22 -29 0
-22 -30 0
-22 -31 0
-23 -24 0
-23 -25 0
-23 -26 0
-23 -27 0
-23 -28 0
-23 -29 0
-23 -30 0
-23 -31 0
-24 -25 0
-24 -26 0
-24 -27 0
-24 -28 0
-24 -29 0
-24 -30 0
-24 -31 0
-25 -26 0
-25 -27 0
-25 -28 0
-25 -29 0
-25 -30 0
-25 -31 0
-26 -27 0
-26 -28 0
-26 -29 0
-26 -30 0
-26 -31 0
-27 -28 0
-27 -29 0
-27 -30 0
-27 -31 0
-28 -29 0
-28 -30 0
-28 -31 0
-29 -30 0
-29 -31 0
-30 -31 0
32 33 34 0
-32 -33 0
-32 -34 0
-33 -34 0
35 36 0
-35 -36 0
37 38 39 0
-37 -38 0
-37 -39 0
-38 -39 0
40 41 42 43 0
-40 -41 0
-40 -42 0
-40 -43 0
-41 -42 0
-41 -43 0
-42 -43 0
44 45 46 0
-44 -45 0
-44 -46 0
-45 -46 0
47 48 0
-47 -48 0
49 50 51 0
-49 -50 0
-49 -51 0
-50 -51 0
52 53 54 55 56 57 58 0
-52 -53 0
-52 -54 0
-52 -55 0
-52 -56 0
-52 -57 0
-52 -58 0
-53 -54 0
-53 -55 0
-53 -56 0
-53 -57 0
-53 -58 0
-54 -55 0
-54 -56 0
-54 -57 0
-54 -58 0
-55 -56 0
-55 -57 0
-55 -58 0
-56 -57 0
-56 -58 0
-57 -58 0
59 60 61 0
-59 -60 0
-59 -61 0
-60 -61 0
62 63 64 65 66 67 0
-62 -63 0
-62 -64 0
-62 -65 0
-62 -66 0
-62 -67 0
-63 -64 0
-63 -65 0
-63 -66 0
-63 -67 0
-64 -65 0
-64 -66 0
-64 -67 0
-65 -66 0
-65 -67 0
-66 -67 0
-1 -4 -19 -22 0
-1 -5 -19 -22 0
-1 -5 -19 -23 0
-2 -4 -20 -22 0
-2 -5 -20 -22 0
-2 -5 -20 -23 0
-3 -4 -21 -22 0
-3 -5 -21 -22 0
-3 -5 -21 -23 0
-1 -4 -44 -48 0
-2 -4 -45 -48 0
-3 -4 -46 -48 0
-1 -4 -49 -52 0
-1 -4 -49 -53 0
-1 -4 -49 -54 0
-1 -4 -49 -55 0
-1 -5 -49 -52 0
-1 -5 -49 -53 0
-1 -5 -49 -54 0
-1 -5 -49 -55 0
-1 -5 -49 -56 0
-2 -4 -50 -52 0
-2 -4 -50 -53 0
-2 -4 -50 -54 0
-2 -4 -50 -55 0
-2 -5 -50 -52 0
-2 -5 -50 -53 0
-2 -5 -50 -54 0
-2 -5 -50 -55 0
-2 -5 -50 -56 0
-3 -4 -51 -52 0
-3 -4 -51 -53 0
-3 -4 -51 -54 0
-3 -4 -51 -55 0
-3 -5 -51 -52 0
-3 -5 -51 -53 0
-3 -5 -51 -54 0
-3 -5 -51 -55 0
-3 -5 -51 -56 0
-6 -9 -13 -18 0
-7 -9 -14 -18 0
-8 -9 -15 -18 0
-6 -9 -37 -40 0
-6 -9 -37 -41 0
-6 -10 -37 -40 0
-6 -10 -37 -41 0
-6 -10 -37 -42 0
-6 -11 -37 -40 0
-6 -11 -37 -41 0
-6 -11 -37 -42 0
-6 -11 -37 -43 0
-6 -12 -37 -40 0
-6 -12 -37 -41 0
-6 -12 -37 -42 0
-6 -12 -37 -43 0
-7 -9 -38 -40 0
-7 -9 -38 -41 0
-7 -10 -38 -40 0
-7 -10 -38 -41 0
-7 -10 -38 -42 0
-7 -11 -38 -40 0
-7 -11 -38 -41 0
-7 -11 -38 -42 0
-7 -11 -38 -43 0
-7 -12 -38 -40 0
-7 -12 -38 -41 0
-7 -12 -38 -42 0
-7 -12 -38 -43 0
-8 -9 -39 -40 0
-8 -9 -39 -41 0
-8 -10 -39 -40 0
-8 -10 -39 -41 0
-8 -10 -39 -42 0
-8 -11 -39 -40 0
-8 -11 -39 -41 0
-8 -11 -39 -42 0
-8 -11 -39 -43 0
-8 -12 -39 -40 0
-8 -12 -39 -41 0
-8 -12 -39 -42 0
-8 -12 -39 -43 0
-6 -9 -59 -64 0
-6 -9 -59 -65 0
-6 -9 -59 -66 0
-6 -10 -59 -65 0
-6 -10 -59 -66 0
-6 -10 -59 -67 0
-6 -11 -59 -66 0
-6 -11 -59 -67 0
-6 -12 -59 -67 0
-7 -9 -60 -64 0
-7 -9 -60 -65 0
-7 -9 -60 -66 0
-7 -10 -60 -65 0
-7 -10 -60 -66 0
-7 -10 -60 -67 0
-7 -11 -60 -66 0
-7 -11 -60 -67 0
-7 -12 -60 -67 0
-8 -9 -61 -64 0
-8 -9 -61 -65 0
-8 -9 -61 -66 0
-8 -10 -61 -65 0
-8 -10 -61 -66 0
-8 -10 -61 -67 0
-8 -11 -61 -66 0
-8 -11 -61 -67 0
-8 -12 -61 -67 0
-13 -16 -19 -28 0
-13 -16 -19 -29 0
-13 -16 -19 -30 0
-13 -16 -19 -31 0
-13 -17 -19 -29 0
-13 -17 -19 -30 0
-13 -17 -19 -31 0
-13 -18 -19 -30 0
-13 -18 -19 -31 0
-14 -16 -20 -28 0
-14 -16 -20 -29 0
-14 -16 -20 -30 0
-14 -16 -20 -31 0
-14 -17 -20 -29 0
-14 -17 -20 -30 0
-14 -17 -20 -31 0
-14 -18 -20 -30 0
-14 -18 -20 -31 0
-15 -16 -21 -28 0
-15 -16 -21 -29 0
-15 -16 -21 -30 0
-15 -16 -21 -31 0
-15 -17 -21 -29 0
-15 -17 -21 -30 0
-15 -17 -21 -31 0
-15 -18 -21 -30 0
-15 -18 -21 -31 0
-13 -16 -49 -58 0
-14 -16 -50 -58 0
-15 -16 -51 -58 0
-13 -16 -59 -62 0
-13 -17 -59 -62 0
-13 -17 -59 -63 0
-13 -18 -59 -62 0
-13 -18 -59 -63 0
-13 -18 -59 -64 0
-14 -16 -60 -62 0
-14 -17 -60 -62 0
-14 -17 -60 -63 0
-14 -18 -60 -62 0
-14 -18 -60 -63 0
-14 -18 -60 -64 0
-15 -16 -61 -62 0
-15 -17 -61 -62 0
-15 -17 -61 -63 0
-15 -18 -61 -62 0
-15 -18 -61 -63 0
-15 -18 -61 -64 0
-19 -22 -49 -52 0
-19 -22 -49 -53 0
-19 -22 -49 -54 0
-19 -22 -49 -55 0
-19 -23 -49 -53 0
-19 -23 -49 -54 0
-19 -23 -49 -55 0
-19 -23 -49 -56 0
-19 -24 -49 -54 0
-19 -24 -49 -55 0
-19 -24 -49 -56 0
-19 -24 -49 -57 0
-19 -25 -49 -55 0
-19 -25 -49 -56 0
-19 -25 -49 -57 0
-19 -25 -49 -58 0
-19 -26 -49 -56 0
-19 -26 -49 -57 0
-19 -26 -49 -58 0
-19 -27 -49 -57 0
-19 -27 -49 -58 0
-19 -28 -49 -58 0
-20 -22 -50 -52 0
-20 -22 -50 -53 0
-20 -22 -50 -54 0
-20 -22 -50 -55 0
-20 -23 -50 -53 0
-20 -23 -50 -54 0
-20 -23 -50 -55 0
-20 -23 -50 -56 0
-20 -24 -50 -54 0
-20 -24 -50 -55 0
-20 -24 -50 -56 0
-20 -24 -50 -57 0
-20 -25 -50 -55 0
-20 -25 -50 -56 0
-20 -25 -50 -57 0
-20 -25 -50 -58 0
-20 -26 -50 -56 0
-20 -26 -50 -57 0
-20 -26 -50 -58 0
-20 -27 -50 -57 0
-20 -27 -50 -58 0
-20 -28 -50 -58 0
-21 -22 -51 -52 0
-21 -22 -51 -53 0
-21 -22 -51 -54 0
-21 -22 -51 -55 0
-21 -23 -51 -53 0
-21 -23 -51 -54 0
-21 -23 -51 -55 0
-21 -23 -51 -56 0
-21 -24 -51 -54 0
-21 -24 -51 -55 0
-21 -24 -51 -56 0
-21 -24 -51 -57 0
-21 -25 -51 -55 0
-21 -25 -51 -56 0
-21 -25 -51 -57 0
-21 -25 -51 -58 0
-21 -26 -51 -56 0
-21 -26 -51 -57 0
-21 -26 -51 -58 0
-21 -27 -51 -57 0
-21 -27 -51 -58 0
-21 -28 -51 -58 0
-19 -31 -59 -62 0
-20 -31 -60 -62 0
-21 -31 -61 -62 0
-32 -36 -44 -47 0
-33 -36 -45 -47 0
-34 -36 -46 -47 0
-37 -40 -59 -65 0
-37 -40 -59 -66 0
-37 -40 -59 -67 0
-37 -41 -59 -66 0
-37 -41 -59 -67 0
-37 -42 -59 -67 0
-38 -40 -60 -65 0
-38 -40 -60 -66 0
-38 -40 -60 -67 0
-38 -41 -60 -66 0
-38 -41 -60 -67 0
-38 -42 -60 -67 0
-39 -40 -61 -65 0
-39 -40 -61 -66 0
-39 -40 -61 -67 0
-39 -41 -61 -66 0
-39 -41 -61 -67 0
-39 -42 -61 -67 0
-44 -48 -49 -52 0
-45 -48 -50 -52 0
-46 -48 -51 -52 0
