p cnf 125 473
1 2 3 4 5 6 7 8 9 10 11 12 13 14 15 16 17 18 19 20 21 22 23 24 25 0
26 27 28 29 30 31 32 33 34 35 36 37 38 39 40 41 42 43 44 45 46 47 48 49 50 51 52 53 54 55 56 57 58 59 60 61 62 63 64 65 66 67 68 69 70 0
71 72 73 74 75 76 77 78 79 80 81 82 83 84 85 86 87 88 89 90 91 92 93 94 95 96 97 98 99 100 101 102 103 104 105 106 107 108 109 110 111 112 113 114 115 116 117 118 119 120 121 122 123 124 125 0
-6 -26 0
-11 -26 0
-11 -31 0
-16 -26 0
-16 -31 0
-16 -36 0
-21 -26 0
-21 -31 0
-21 -36 0
-21 -41 0
-7 -27 0
-12 -27 0
-12 -32 0
-17 -27 0
-17 -32 0
-17 -37 0
-22 -27 0
-22 -32 0
-22 -37 0
-22 -42 0
-8 -28 0
-13 -28 0
-13 -33 0
-18 -28 0
-18 -33 0
-18 -38 0
-23 -28 0
-23 -33 0
-23 -38 0
-23 -43 0
-9 -29 0
-14 -29 0
-14 -34 0
-19 -29 0
-19 -34 0
-19 -39 0
-24 -29 0
-24 -34 0
-24 -39 0
-24 -44 0
-10 -30 0
-15 -30 0
-15 -35 0
-20 -30 0
-20 -35 0
-20 -40 0
-25 -30 0
-25 -35 0
-25 -40 0
-25 -45 0
-11 -71 0
-16 -71 0
-16 -76 0
-21 -71 0
-21 -76 0
-21 -81 0
-12 -72 0
-17 -72 0
-17 -77 0
-22 -72 0
-22 -77 0
-22 -82 0
-13 -73 0
-18 -73 0
-18 -78 0
-23 -73 0
-23 -78 0
-23 -83 0
-14 -74 0
-19 -74 0
-19 -79 0
-24 -74 0
-24 -79 0
-24 -84 0
-15 -75 0
-20 -75 0
-20 -80 0
-25 -75 0
-25 -80 0
-25 -85 0
-26 -71 0
-26 -76 0
-26 -81 0
-26 -86 0
-26 -91 0
-31 -71 0
-31 -76 0
-31 -81 0
-31 -86 0
-31 -91 0
-31 -96 0
-36 -71 0
-36 -76 0
-36 -81 0
-36 -86 0
-36 -91 0
-36 -96 0
-36 -101 0
-41 -71 0
-41 -76 0
-41 -81 0
-41 -86 0
-41 -91 0
-41 -96 0
-41 -101 0
-41 -106 0
-46 -71 0
-46 -76 0
-46 -81 0
-46 -86 0
-46 -91 0
-46 -96 0
-46 -101 0
-46 -106 0
-46 -111 0
-51 -71 0
-51 -76 0
-51 -81 0
-51 -86 0
-51 -91 0
-51 -96 0
-51 -101 0
-51 -106 0
-51 -111 0
-51 -116 0
-56 -71 0
-56 -76 0
-56 -81 0
-56 -86 0
-56 -91 0
-56 -96 0
-56 -101 0
-56 -106 0
-56 -111 0
-56 -116 0
-56 -121 0
-61 -71 0
-61 -76 0
-61 -81 0
-61 -86 0
-61 -91 0
-61 -96 0
-61 -101 0
-61 -106 0
-61 -111 0
-61 -116 0
-61 -121 0
-66 -71 0
-66 -76 0
-66 -81 0
-66 -86 0
-66 -91 0
-66 -96 0
-66 -101 0
-66 -106 0
-66 -111 0
-66 -116 0
-66 -121 0
-27 -72 0
-27 -77 0
-27 -82 0
-27 -87 0
-27 -92 0
-32 -72 0
-32 -77 0
-32 -82 0
-32 -87 0
-32 -92 0
-32 -97 0
-37 -72 0
-37 -77 0
-37 -82 0
-37 -87 0
-37 -92 0
-37 -97 0
-37 -102 0
-42 -72 0
-42 -77 0
-42 -82 0
-42 -87 0
-42 -92 0
-42 -97 0
-42 -102 0
-42 -107 0
-47 -72 0
-47 -77 0
-47 -82 0
-47 -87 0
-47 -92 0
-47 -97 0
-47 -102 0
-47 -107 0
-47 -112 0
-52 -72 0
-52 -77 0
-52 -82 0
-52 -87 0
-52 -92 0
-52 -97 0
-52 -102 0
-52 -107 0
-52 -112 0
-52 -117 0
-57 -72 0
-57 -77 0
-57 -82 0
-57 -87 0
-57 -92 0
-57 -97 0
-57 -102 0
-57 -107 0
-57 -112 0
-57 -117 0
-57 -122 0
-62 -72 0
-62 -77 0
-62 -82 0
-62 -87 0
-62 -92 0
-62 -97 0
-62 -102 0
-62 -107 0
-62 -112 0
-62 -117 0
-62 -122 0
-67 -72 0
-67 -77 0
-67 -82 0
-67 -87 0
-67 -92 0
-67 -97 0
-67 -102 0
-67 -107 0
-67 -112 0
-67 -117 0
-67 -122 0
-28 -73 0
-28 -78 0
-28 -83 0
-28 -88 0
-28 -93 0
-33 -73 0
-33 -78 0
-33 -83 0
-33 -88 0
-33 -93 0
-33 -98 0
-38 -73 0
-38 -78 0
-38 -83 0
-38 -88 0
-38 -93 0
-38 -98 0
-38 -103 0
-43 -73 0
-43 -78 0
-43 -83 0
-43 -88 0
-43 -93 0
-43 -98 0
-43 -103 0
-43 -108 0
-48 -73 0
-48 -78 0
-48 -83 0
-48 -88 0
-48 -93 0
-48 -98 0
-48 -103 0
-48 -108 0
-48 -113 0
-53 -73 0
-53 -78 0
-53 -83 0
-53 -88 0
-53 -93 0
-53 -98 0
-53 -103 0
-53 -108 0
-53 -113 0
-53 -118 0
-58 -73 0
-58 -78 0
-58 -83 0
-58 -88 0
-58 -93 0
-58 -98 0
-58 -103 0
-58 -108 0
-58 -113 0
-58 -118 0
-58 -123 0
-63 -73 0
-63 -78 0
-63 -83 0
-63 -88 0
-63 -93 0
-63 -98 0
-63 -103 0
-63 -108 0
-63 -113 0
-63 -118 0
-63 -123 0
-68 -73 0
-68 -78 0
-68 -83 0
-68 -88 0
-68 -93 0
-68 -98 0
-68 -103 0
-68 -108 0
-68 -113 0
-68 -118 0
-68 -123 0
-29 -74 0
-29 -79 0
-29 -84 0
-29 -89 0
-29 -94 0
-34 -74 0
-34 -79 0
-34 -84 0
-34 -89 0
-34 -94 0
-34 -99 0
-39 -74 0
-39 -79 0
-39 -84 0
-39 -89 0
-39 -94 0
-39 -99 0
-39 -104 0
-44 -74 0
-44 -79 0
-44 -84 0
-44 -89 0
-44 -94 0
-44 -99 0
-44 -104 0
-44 -109 0
-49 -74 0
-49 -79 0
-49 -84 0
-49 -89 0
-49 -94 0
-49 -99 0
-49 -104 0
-49 -109 0
-49 -114 0
-54 -74 0
-54 -79 0
-54 -84 0
-54 -89 0
-54 -94 0
-54 -99 0
-54 -104 0
-54 -109 0
-54 -114 0
-54 -119 0
-59 -74 0
-59 -79 0
-59 -84 0
-59 -89 0
-59 -94 0
-59 -99 0
-59 -104 0
-59 -109 0
-59 -114 0
-59 -119 0
-59 -124 0
-64 -74 0
-64 -79 0
-64 -84 0
-64 -89 0
-64 -94 0
-64 -99 0
-64 -104 0
-64 -109 0
-64 -114 0
-64 -119 0
-64 -124 0
-69 -74 0
-69 -79 0
-69 -84 0
-69 -89 0
-69 -94 0
-69 -99 0
-69 -104 0
-69 -109 0
-69 -114 0
-69 -119 0
-69 -124 0
-30 -75 0
-30 -80 0
-30 -85 0
-30 -90 0
-30 -95 0
-35 -75 0
-35 -80 0
-35 -85 0
-35 -90 0
-35 -95 0
-35 -100 0
-40 -75 0
-40 -80 0
-40 -85 0
-40 -90 0
-40 -95 0
-40 -100 0
-40 -105 0
-45 -75 0
-45 -80 0
-45 -85 0
-45 -90 0
-45 -95 0
-45 -100 0
-45 -105 0
-45 -110 0
-50 -75 0
-50 -80 0
-50 -85 0
-50 -90 0
-50 -95 0
-50 -100 0
-50 -105 0
-50 -110 0
-50 -115 0
-55 -75 0
-55 -80 0
-55 -85 0
-55 -90 0
-55 -95 0
-55 -100 0
-55 -105 0
-55 -110 0
-55 -115 0
-55 -120 0
-60 -75 0
-60 -80 0
-60 -85 0
-60 -90 0
-60 -95 0
-60 -100 0
-60 -105 0
-60 -110 0
-60 -115 0
-60 -120 0
-60 -125 0
-65 -75 0
-65 -80 0
-65 -85 0
-65 -90 0
-65 -95 0
-65 -100 0
-65 -105 0
-65 -110 0
-65 -115 0
-65 -120 0
-65 -125 0
-70 -75 0
-70 -80 0
-70 -85 0
-70 -90 0
-70 -95 0
-70 -100 0
-70 -105 0
-70 -110 0
-70 -115 0
-70 -120 0
-70 -125 0
