p cnf 70 560
1 2 0
-1 -2 0
3 4 5 6 7 0
-3 -4 0
-3 -5 0
-3 -6 0
-3 -7 0
-4 -5 0
-4 -6 0
-4 -7 0
-5 -6 0
-5 -7 0
-6 -7 0
8 9 0
-8 -9 0
10 11 12 13 14 15 16 17 0
-10 -11 0
-10 -12 0
-10 -13 0
-10 -14 0
-10 -15 0
-10 -16 0
-10 -17 0
-11 -12 0
-11 -13 0
-11 -14 0
-11 -15 0
-11 -16 0
-11 -17 0
-12 -13 0
-12 -14 0
-12 -15 0
-12 -16 0
-12 -17 0
-13 -14 0
-13 -15 0
-13 -16 0
-13 -17 0
-14 -15 0
-14 -16 0
-14 -17 0
-15 -16 0
-15 -17 0
-16 -17 0
18 19 0
-18 -19 0
20 21 22 23 24 25 26 27 0
-20 -21 0
-20 -22 0
-20 -23 0
-20 -24 0
-20 -25 0
-20 -26 0
-20 -27 0
-21 -22 0
-21 -23 0
-21 -24 0
-21 -25 0
-21 -26 0
-21 -27 0
-22 -23 0
-22 -24 0
-22 -25 0
-22 -26 0
-22 -27 0
-23 -24 0
-23 -25 0
-23 -26 0
-23 -27 0
-24 -25 0
-24 -26 0
-24 -27 0
-25 -26 0
-25 -27 0
-26 -27 0
28 29 0
-28 -29 0
30 31 32 33 34 0
-30 -31 0
-30 -32 0
-30 -33 0
-30 -34 0
-31 -32 0
-31 -33 0
-31 -34 0
-32 -33 0
-32 -34 0
-33 -34 0
35 36 0
-35 -36 0
37 38 39 0
-37 -38 0
-37 -39 0
-38 -39 0
40 41 0
-40 -41 0
42 43 44 45 46 47 48 0
-42 -43 0
-42 -44 0
-42 -45 0
-42 -46 0
-42 -47 0
-42 -48 0
-43 -44 0
-43 -45 0
-43 -46 0
-43 -47 0
-43 -48 0
-44 -45 0
-44 -46 0
-44 -47 0
-44 -48 0
-45 -46 0
-45 -47 0
-45 -48 0
-46 -47 0
-46 -48 0
-47 -48 0
49 50 0
-49 -50 0
51 52 53 54 0
-51 -52 0
-51 -53 0
-51 -54 0
-52 -53 0
-52 -54 0
-53 -54 0
55 56 0
-55 -56 0
57 58 0
-57 -58 0
59 60 0
-59 -60 0
61 62 63 64 65 0
-61 -62 0
-61 -63 0
-61 -64 0
-61 -65 0
-62 -63 0
-62 -64 0
-62 -65 0
-63 -64 0
-63 -65 0
-64 -65 0
66 67 0
-66 -67 0
68 69 70 0
-68 -69 0
-68 -70 0
-69 -70 0
-1 -8 -5 -10 0
-1 -8 -6 -10 0
-1 -8 -6 -11 0
-1 -8 -7 -10 0
-1 -8 -7 -11 0
-1 -8 -7 -12 0
-2 -9 -5 -10 0
-2 -9 -6 -10 0
-2 -9 -6 -11 0
-2 -9 -7 -10 0
-2 -9 -7 -11 0
-2 -9 -7 -12 0
-1 -28 -6 -30 0
-1 -28 -7 -30 0
-1 -28 -7 -31 0
-2 -29 -6 -30 0
-2 -29 -7 -30 0
-2 -29 -7 -31 0
-1 -49 -3 -51 0
-1 -49 -3 -52 0
-1 -49 -3 -53 0
-1 -49 -3 -54 0
-1 -49 -4 -51 0
-1 -49 -4 -52 0
-1 -49 -4 -53 0
-1 -49 -4 -54 0
-1 -49 -5 -51 0
-1 -49 -5 -52 0
-1 -49 -5 -53 0
-1 -49 -5 -54 0
-1 -49 -6 -52 0
-1 -49 -6 -53 0
-1 -49 -6 -54 0
-1 -49 -7 -53 0
-1 -49 -7 -54 0
-2 -50 -3 -51 0
-2 -50 -3 -52 0
-2 -50 -3 -53 0
-2 -50 -3 -54 0
-2 -50 -4 -51 0
-2 -50 -4 -52 0
-2 -50 -4 -53 0
-2 -50 -4 -54 0
-2 -50 -5 -51 0
-2 -50 -5 -52 0
-2 -50 -5 -53 0
-2 -50 -5 -54 0
-2 -50 -6 -52 0
-2 -50 -6 -53 0
-2 -50 -6 -54 0
-2 -50 -7 -53 0
-2 -50 -7 -54 0
-1 -55 -4 -57 0
-1 -55 -5 -57 0
-1 -55 -5 -58 0
-1 -55 -6 -57 0
-1 -55 -6 -58 0
-1 -55 -7 -57 0
-1 -55 -7 -58 0
-2 -56 -4 -57 0
-2 -56 -5 -57 0
-2 -56 -5 -58 0
-2 -56 -6 -57 0
-2 -56 -6 -58 0
-2 -56 -7 -57 0
-2 -56 -7 -58 0
-1 -66 -3 -68 0
-1 -66 -4 -68 0
-1 -66 -4 -69 0
-1 -66 -5 -68 0
-1 -66 -5 -69 0
-1 -66 -5 -70 0
-1 -66 -6 -68 0
-1 -66 -6 -69 0
-1 -66 -6 -70 0
-1 -66 -7 -68 0
-1 -66 -7 -69 0
-1 -66 -7 -70 0
-2 -67 -3 -68 0
-2 -67 -4 -68 0
-2 -67 -4 -69 0
-2 -67 -5 -68 0
-2 -67 -5 -69 0
-2 -67 -5 -70 0
-2 -67 -6 -68 0
-2 -67 -6 -69 0
-2 -67 -6 -70 0
-2 -67 -7 -68 0
-2 -67 -7 -69 0
-2 -67 -7 -70 0
-8 -18 -14 -20 0
-8 -18 -15 -21 0
-8 -18 -16 -22 0
-8 -18 -17 -23 0
-9 -19 -14 -20 0
-9 -19 -15 -21 0
-9 -19 -16 -22 0
-9 -19 -17 -23 0
-8 -28 -11 -30 0
-8 -28 -12 -30 0
-8 -28 -12 -31 0
-8 -28 -13 -31 0
-8 -28 -13 -32 0
-8 -28 -14 -32 0
-8 -28 -14 -33 0
-8 -28 -15 -33 0
-8 -28 -15 -34 0
-8 -28 -16 -34 0
-9 -29 -11 -30 0
-9 -29 -12 -30 0
-9 -29 -12 -31 0
-9 -29 -13 -31 0
-9 -29 -13 -32 0
-9 -29 -14 -32 0
-9 -29 -14 -33 0
-9 -29 -15 -33 0
-9 -29 -15 -34 0
-9 -29 -16 -34 0
-8 -35 -14 -37 0
-8 -35 -15 -38 0
-8 -35 -16 -39 0
-9 -36 -14 -37 0
-9 -36 -15 -38 0
-9 -36 -16 -39 0
-8 -40 -14 -42 0
-8 -40 -15 -43 0
-8 -40 -16 -44 0
-8 -40 -17 -45 0
-9 -41 -14 -42 0
-9 -41 -15 -43 0
-9 -41 -16 -44 0
-9 -41 -17 -45 0
-8 -49 -10 -53 0
-8 -49 -10 -54 0
-8 -49 -11 -54 0
-9 -50 -10 -53 0
-9 -50 -10 -54 0
-9 -50 -11 -54 0
-8 -55 -10 -57 0
-8 -55 -10 -58 0
-8 -55 -11 -57 0
-8 -55 -11 -58 0
-8 -55 -12 -57 0
-8 -55 -12 -58 0
-8 -55 -13 -58 0
-9 -56 -10 -57 0
-9 -56 -10 -58 0
-9 -56 -11 -57 0
-9 -56 -11 -58 0
-9 -56 -12 -57 0
-9 -56 -12 -58 0
-9 -56 -13 -58 0
-8 -59 -13 -61 0
-8 -59 -14 -61 0
-8 -59 -14 -62 0
-8 -59 -15 -61 0
-8 -59 -15 -62 0
-8 -59 -15 -63 0
-8 -59 -16 -62 0
-8 -59 -16 -63 0
-8 -59 -16 -64 0
-8 -59 -17 -63 0
-8 -59 -17 -64 0
-8 -59 -17 -65 0
-9 -60 -13 -61 0
-9 -60 -14 -61 0
-9 -60 -14 -62 0
-9 -60 -15 -61 0
-9 -60 -15 -62 0
-9 -60 -15 -63 0
-9 -60 -16 -62 0
-9 -60 -16 -63 0
-9 -60 -16 -64 0
-9 -60 -17 -63 0
-9 -60 -17 -64 0
-9 -60 -17 -65 0
-8 -66 -10 -68 0
-8 -66 -10 -69 0
-8 -66 -10 -70 0
-8 -66 -11 -68 0
-8 -66 -11 -69 0
-8 -66 -11 -70 0
-8 -66 -12 -69 0
-8 -66 -12 -70 0
-8 -66 -13 -70 0
-9 -67 -10 -68 0
-9 -67 -10 -69 0
-9 -67 -10 -70 0
-9 -67 -11 -68 0
-9 -67 -11 -69 0
-9 -67 -11 -70 0
-9 -67 -12 -69 0
-9 -67 -12 -70 0
-9 -67 -13 -70 0
-18 -28 -20 -32 0
-18 -28 -20 -33 0
-18 -28 -21 -33 0
-18 -28 -21 -34 0
-18 -28 -22 -34 0
-19 -29 -20 -32 0
-19 -29 -20 -33 0
-19 -29 -21 -33 0
-19 -29 -21 -34 0
-19 -29 -22 -34 0
-18 -35 -20 -37 0
-18 -35 -21 -38 0
-18 -35 -22 -39 0
-19 -36 -20 -37 0
-19 -36 -21 -38 0
-19 -36 -22 -39 0
-18 -40 -20 -42 0
-18 -40 -21 -43 0
-18 -40 -22 -44 0
-18 -40 -23 -45 0
-18 -40 -24 -46 0
-18 -40 -25 -47 0
-18 -40 -26 -48 0
-19 -41 -20 -42 0
-19 -41 -21 -43 0
-19 -41 -22 -44 0
-19 -41 -23 -45 0
-19 -41 -24 -46 0
-19 -41 -25 -47 0
-19 -41 -26 -48 0
-18 -59 -20 -61 0
-18 -59 -20 -62 0
-18 -59 -21 -61 0
-18 -59 -21 -62 0
-18 -59 -21 -63 0
-18 -59 -22 -62 0
-18 -59 -22 -63 0
-18 -59 -22 -64 0
-18 -59 -23 -63 0
-18 -59 -23 -64 0
-18 -59 -23 -65 0
-18 -59 -24 -64 0
-18 -59 -24 -65 0
-18 -59 -25 -65 0
-19 -60 -20 -61 0
-19 -60 -20 -62 0
-19 -60 -21 -61 0
-19 -60 -21 -62 0
-19 -60 -21 -63 0
-19 -60 -22 -62 0
-19 -60 -22 -63 0
-19 -60 -22 -64 0
-19 -60 -23 -63 0
-19 -60 -23 -64 0
-19 -60 -23 -65 0
-19 -60 -24 -64 0
-19 -60 -24 -65 0
-19 -60 -25 -65 0
-28 -35 -32 -37 0
-28 -35 -33 -37 0
-28 -35 -33 -38 0
-28 -35 -34 -38 0
-28 -35 -34 -39 0
-29 -36 -32 -37 0
-29 -36 -33 -37 0
-29 -36 -33 -38 0
-29 -36 -34 -38 0
-29 -36 -34 -39 0
-28 -40 -32 -42 0
-28 -40 -33 -42 0
-28 -40 -33 -43 0
-28 -40 -34 -43 0
-28 -40 -34 -44 0
-29 -41 -32 -42 0
-29 -41 -33 -42 0
-29 -41 -33 -43 0
-29 -41 -34 -43 0
-29 -41 -34 -44 0
-28 -49 -30 -54 0
-29 -50 -30 -54 0
-28 -55 -30 -57 0
-28 -55 -30 -58 0
-28 -55 -31 -57 0
-28 -55 -31 -58 0
-28 -55 -32 -58 0
-29 -56 -30 -57 0
-29 -56 -30 -58 0
-29 -56 -31 -57 0
-29 -56 -31 -58 0
-29 -56 -32 -58 0
-28 -59 -31 -61 0
-28 -59 -32 -61 0
-28 -59 -32 -62 0
-28 -59 -33 -61 0
-28 -59 -33 -62 0
-28 -59 -33 -63 0
-28 -59 -34 -61 0
-28 -59 -34 -62 0
-28 -59 -34 -63 0
-28 -59 -34 -64 0
-29 -60 -31 -61 0
-29 -60 -32 -61 0
-29 -60 -32 -62 0
-29 -60 -33 -61 0
-29 -60 -33 -62 0
-29 -60 -33 -63 0
-29 -60 -34 -61 0
-29 -60 -34 -62 0
-29 -60 -34 -63 0
-29 -60 -34 -64 0
-28 -66 -30 -68 0
-28 -66 -30 -69 0
-28 -66 -30 -70 0
-28 -66 -31 -69 0
-28 -66 -31 -70 0
-28 -66 -32 -70 0
-29 -67 -30 -68 0
-29 -67 -30 -69 0
-29 -67 -30 -70 0
-29 -67 -31 -69 0
-29 -67 -31 -70 0
-29 -67 -32 -70 0
-35 -40 -37 -42 0
-35 -40 -38 -43 0
-35 -40 -39 -44 0
-36 -41 -37 -42 0
-36 -41 -38 -43 0
-36 -41 -39 -44 0
-35 -59 -37 -61 0
-35 -59 -37 -62 0
-35 -59 -38 -61 0
-35 -59 -38 -62 0
-35 -59 -38 -63 0
-35 -59 -39 -62 0
-35 -59 -39 -63 0
-35 -59 -39 -64 0
-36 -60 -37 -61 0
-36 -60 -37 -62 0
-36 -60 -38 -61 0
-36 -60 -38 -62 0
-36 -60 -38 -63 0
-36 -60 -39 -62 0
-36 -60 -39 -63 0
-36 -60 -39 -64 0
-40 -59 -42 -61 0
-40 -59 -42 -62 0
-40 -59 -43 -61 0
-40 -59 -43 -62 0
-40 -59 -43 -63 0
-40 -59 -44 -62 0
-40 -59 -44 -63 0
-40 -59 -44 -64 0
-40 -59 -45 -63 0
-40 -59 -45 -64 0
-40 -59 -45 -65 0
-40 -59 -46 -64 0
-40 -59 -46 -65 0
-40 -59 -47 -65 0
-41 -60 -42 -61 0
-41 -60 -42 -62 0
-41 -60 -43 -61 0
-41 -60 -43 -62 0
-41 -60 -43 -63 0
-41 -60 -44 -62 0
-41 -60 -44 -63 0
-41 -60 -44 -64 0
-41 -60 -45 -63 0
-41 -60 -45 -64 0
-41 -60 -45 -65 0
-41 -60 -46 -64 0
-41 -60 -46 -65 0
-41 -60 -47 -65 0
-49 -55 -52 -57 0
-49 -55 -53 -57 0
-49 -55 -53 -58 0
-49 -55 -54 -57 0
-49 -55 -54 -58 0
-50 -56 -52 -57 0
-50 -56 -53 -57 0
-50 -56 -53 -58 0
-50 -56 -54 -57 0
-50 -56 -54 -58 0
-49 -66 -51 -68 0
-49 -66 -52 -68 0
-49 -66 -52 -69 0
-49 -66 -53 -68 0
-49 -66 -53 -69 0
-49 -66 -53 -70 0
-49 -66 -54 -68 0
-49 -66 -54 -69 0
-49 -66 -54 -70 0
-50 -67 -51 -68 0
-50 -67 -52 -68 0
-50 -67 -52 -69 0
-50 -67 -53 -68 0
-50 -67 -53 -69 0
-50 -67 -53 -70 0
-50 -67 -54 -68 0
-50 -67 -54 -69 0
-50 -67 -54 -70 0
-55 -59 -58 -61 0
-56 -60 -58 -61 0
-55 -66 -57 -68 0
-55 -66 -57 -69 0
-55 -66 -57 -70 0
-55 -66 -58 -68 0
-55 -66 -58 -69 0
-55 -66 -58 -70 0
-56 -67 -57 -68 0
-56 -67 -57 -69 0
-56 -67 -57 -70 0
-56 -67 -58 -68 0
-56 -67 -58 -69 0
-56 -67 -58 -70 0
-59 -66 -61 -70 0
-60 -67 -61 -70 0
